1 1027 5
2 922 5
3 900 5
4 893 5
5 853 5
10 849 5
17 835 5
35 825 5
38 821 5
167 815 5
196 806 5
331 804 5
468 803 5



1 949 5
2 925 5
3 920 5
4 915 5
5 902 5
6 856 5
12 841 5
17 825 5
22 821 5
80 818 5
153 815 6
156 802 5



1 1016 5
2 864 5
7 848 5
14 846 5
24 828 5
31 803 5



1 979 5
2 938 5
3 880 5
9 855 5
15 822 5
27 810 5
192 806 5



1 993 5
2 897 5
3 887 5
4 873 5
10 818 5
148 803 5
370 797 5



